c *********************************
c * Circuit generated by BenCGen
c *
c * RippleCarryAdderSubtractor_90_90_90_OutSunT
c *
c * Ports with 1 gate(s): 2
c * Ports with 2 gate(s): 542
c * Total gates: 544
c *********************************
p cnf 724 1901
1 273 0
-1 -273 0
1 -272 0
273 -272 0
-1 -273 272 0
272 274 0
-272 -274 0
91 272 -275 0
-91 272 275 0
91 -272 275 0
-91 -272 -275 0
92 272 -276 0
-92 272 276 0
92 -272 276 0
-92 -272 -276 0
93 272 -277 0
-93 272 277 0
93 -272 277 0
-93 -272 -277 0
94 272 -278 0
-94 272 278 0
94 -272 278 0
-94 -272 -278 0
95 272 -279 0
-95 272 279 0
95 -272 279 0
-95 -272 -279 0
96 272 -280 0
-96 272 280 0
96 -272 280 0
-96 -272 -280 0
97 272 -281 0
-97 272 281 0
97 -272 281 0
-97 -272 -281 0
98 272 -282 0
-98 272 282 0
98 -272 282 0
-98 -272 -282 0
99 272 -283 0
-99 272 283 0
99 -272 283 0
-99 -272 -283 0
100 272 -284 0
-100 272 284 0
100 -272 284 0
-100 -272 -284 0
101 272 -285 0
-101 272 285 0
101 -272 285 0
-101 -272 -285 0
102 272 -286 0
-102 272 286 0
102 -272 286 0
-102 -272 -286 0
103 272 -287 0
-103 272 287 0
103 -272 287 0
-103 -272 -287 0
104 272 -288 0
-104 272 288 0
104 -272 288 0
-104 -272 -288 0
105 272 -289 0
-105 272 289 0
105 -272 289 0
-105 -272 -289 0
106 272 -290 0
-106 272 290 0
106 -272 290 0
-106 -272 -290 0
107 272 -291 0
-107 272 291 0
107 -272 291 0
-107 -272 -291 0
108 272 -292 0
-108 272 292 0
108 -272 292 0
-108 -272 -292 0
109 272 -293 0
-109 272 293 0
109 -272 293 0
-109 -272 -293 0
110 272 -294 0
-110 272 294 0
110 -272 294 0
-110 -272 -294 0
111 272 -295 0
-111 272 295 0
111 -272 295 0
-111 -272 -295 0
112 272 -296 0
-112 272 296 0
112 -272 296 0
-112 -272 -296 0
113 272 -297 0
-113 272 297 0
113 -272 297 0
-113 -272 -297 0
114 272 -298 0
-114 272 298 0
114 -272 298 0
-114 -272 -298 0
115 272 -299 0
-115 272 299 0
115 -272 299 0
-115 -272 -299 0
116 272 -300 0
-116 272 300 0
116 -272 300 0
-116 -272 -300 0
117 272 -301 0
-117 272 301 0
117 -272 301 0
-117 -272 -301 0
118 272 -302 0
-118 272 302 0
118 -272 302 0
-118 -272 -302 0
119 272 -303 0
-119 272 303 0
119 -272 303 0
-119 -272 -303 0
120 272 -304 0
-120 272 304 0
120 -272 304 0
-120 -272 -304 0
121 272 -305 0
-121 272 305 0
121 -272 305 0
-121 -272 -305 0
122 272 -306 0
-122 272 306 0
122 -272 306 0
-122 -272 -306 0
123 272 -307 0
-123 272 307 0
123 -272 307 0
-123 -272 -307 0
124 272 -308 0
-124 272 308 0
124 -272 308 0
-124 -272 -308 0
125 272 -309 0
-125 272 309 0
125 -272 309 0
-125 -272 -309 0
126 272 -310 0
-126 272 310 0
126 -272 310 0
-126 -272 -310 0
127 272 -311 0
-127 272 311 0
127 -272 311 0
-127 -272 -311 0
128 272 -312 0
-128 272 312 0
128 -272 312 0
-128 -272 -312 0
129 272 -313 0
-129 272 313 0
129 -272 313 0
-129 -272 -313 0
130 272 -314 0
-130 272 314 0
130 -272 314 0
-130 -272 -314 0
131 272 -315 0
-131 272 315 0
131 -272 315 0
-131 -272 -315 0
132 272 -316 0
-132 272 316 0
132 -272 316 0
-132 -272 -316 0
133 272 -317 0
-133 272 317 0
133 -272 317 0
-133 -272 -317 0
134 272 -318 0
-134 272 318 0
134 -272 318 0
-134 -272 -318 0
135 272 -319 0
-135 272 319 0
135 -272 319 0
-135 -272 -319 0
136 272 -320 0
-136 272 320 0
136 -272 320 0
-136 -272 -320 0
137 272 -321 0
-137 272 321 0
137 -272 321 0
-137 -272 -321 0
138 272 -322 0
-138 272 322 0
138 -272 322 0
-138 -272 -322 0
139 272 -323 0
-139 272 323 0
139 -272 323 0
-139 -272 -323 0
140 272 -324 0
-140 272 324 0
140 -272 324 0
-140 -272 -324 0
141 272 -325 0
-141 272 325 0
141 -272 325 0
-141 -272 -325 0
142 272 -326 0
-142 272 326 0
142 -272 326 0
-142 -272 -326 0
143 272 -327 0
-143 272 327 0
143 -272 327 0
-143 -272 -327 0
144 272 -328 0
-144 272 328 0
144 -272 328 0
-144 -272 -328 0
145 272 -329 0
-145 272 329 0
145 -272 329 0
-145 -272 -329 0
146 272 -330 0
-146 272 330 0
146 -272 330 0
-146 -272 -330 0
147 272 -331 0
-147 272 331 0
147 -272 331 0
-147 -272 -331 0
148 272 -332 0
-148 272 332 0
148 -272 332 0
-148 -272 -332 0
149 272 -333 0
-149 272 333 0
149 -272 333 0
-149 -272 -333 0
150 272 -334 0
-150 272 334 0
150 -272 334 0
-150 -272 -334 0
151 272 -335 0
-151 272 335 0
151 -272 335 0
-151 -272 -335 0
152 272 -336 0
-152 272 336 0
152 -272 336 0
-152 -272 -336 0
153 272 -337 0
-153 272 337 0
153 -272 337 0
-153 -272 -337 0
154 272 -338 0
-154 272 338 0
154 -272 338 0
-154 -272 -338 0
155 272 -339 0
-155 272 339 0
155 -272 339 0
-155 -272 -339 0
156 272 -340 0
-156 272 340 0
156 -272 340 0
-156 -272 -340 0
157 272 -341 0
-157 272 341 0
157 -272 341 0
-157 -272 -341 0
158 272 -342 0
-158 272 342 0
158 -272 342 0
-158 -272 -342 0
159 272 -343 0
-159 272 343 0
159 -272 343 0
-159 -272 -343 0
160 272 -344 0
-160 272 344 0
160 -272 344 0
-160 -272 -344 0
161 272 -345 0
-161 272 345 0
161 -272 345 0
-161 -272 -345 0
162 272 -346 0
-162 272 346 0
162 -272 346 0
-162 -272 -346 0
163 272 -347 0
-163 272 347 0
163 -272 347 0
-163 -272 -347 0
164 272 -348 0
-164 272 348 0
164 -272 348 0
-164 -272 -348 0
165 272 -349 0
-165 272 349 0
165 -272 349 0
-165 -272 -349 0
166 272 -350 0
-166 272 350 0
166 -272 350 0
-166 -272 -350 0
167 272 -351 0
-167 272 351 0
167 -272 351 0
-167 -272 -351 0
168 272 -352 0
-168 272 352 0
168 -272 352 0
-168 -272 -352 0
169 272 -353 0
-169 272 353 0
169 -272 353 0
-169 -272 -353 0
170 272 -354 0
-170 272 354 0
170 -272 354 0
-170 -272 -354 0
171 272 -355 0
-171 272 355 0
171 -272 355 0
-171 -272 -355 0
172 272 -356 0
-172 272 356 0
172 -272 356 0
-172 -272 -356 0
173 272 -357 0
-173 272 357 0
173 -272 357 0
-173 -272 -357 0
174 272 -358 0
-174 272 358 0
174 -272 358 0
-174 -272 -358 0
175 272 -359 0
-175 272 359 0
175 -272 359 0
-175 -272 -359 0
176 272 -360 0
-176 272 360 0
176 -272 360 0
-176 -272 -360 0
177 272 -361 0
-177 272 361 0
177 -272 361 0
-177 -272 -361 0
178 272 -362 0
-178 272 362 0
178 -272 362 0
-178 -272 -362 0
179 272 -363 0
-179 272 363 0
179 -272 363 0
-179 -272 -363 0
180 272 -364 0
-180 272 364 0
180 -272 364 0
-180 -272 -364 0
1 275 -366 0
-1 275 366 0
1 -275 366 0
-1 -275 -366 0
366 272 -181 0
-366 272 181 0
366 -272 181 0
-366 -272 -181 0
272 -367 0
366 -367 0
-272 -366 367 0
275 -368 0
1 -368 0
-275 -1 368 0
-367 365 0
-368 365 0
367 368 -365 0
2 276 -370 0
-2 276 370 0
2 -276 370 0
-2 -276 -370 0
370 365 -182 0
-370 365 182 0
370 -365 182 0
-370 -365 -182 0
365 -371 0
370 -371 0
-365 -370 371 0
276 -372 0
2 -372 0
-276 -2 372 0
-371 369 0
-372 369 0
371 372 -369 0
3 277 -374 0
-3 277 374 0
3 -277 374 0
-3 -277 -374 0
374 369 -183 0
-374 369 183 0
374 -369 183 0
-374 -369 -183 0
369 -375 0
374 -375 0
-369 -374 375 0
277 -376 0
3 -376 0
-277 -3 376 0
-375 373 0
-376 373 0
375 376 -373 0
4 278 -378 0
-4 278 378 0
4 -278 378 0
-4 -278 -378 0
378 373 -184 0
-378 373 184 0
378 -373 184 0
-378 -373 -184 0
373 -379 0
378 -379 0
-373 -378 379 0
278 -380 0
4 -380 0
-278 -4 380 0
-379 377 0
-380 377 0
379 380 -377 0
5 279 -382 0
-5 279 382 0
5 -279 382 0
-5 -279 -382 0
382 377 -185 0
-382 377 185 0
382 -377 185 0
-382 -377 -185 0
377 -383 0
382 -383 0
-377 -382 383 0
279 -384 0
5 -384 0
-279 -5 384 0
-383 381 0
-384 381 0
383 384 -381 0
6 280 -386 0
-6 280 386 0
6 -280 386 0
-6 -280 -386 0
386 381 -186 0
-386 381 186 0
386 -381 186 0
-386 -381 -186 0
381 -387 0
386 -387 0
-381 -386 387 0
280 -388 0
6 -388 0
-280 -6 388 0
-387 385 0
-388 385 0
387 388 -385 0
7 281 -390 0
-7 281 390 0
7 -281 390 0
-7 -281 -390 0
390 385 -187 0
-390 385 187 0
390 -385 187 0
-390 -385 -187 0
385 -391 0
390 -391 0
-385 -390 391 0
281 -392 0
7 -392 0
-281 -7 392 0
-391 389 0
-392 389 0
391 392 -389 0
8 282 -394 0
-8 282 394 0
8 -282 394 0
-8 -282 -394 0
394 389 -188 0
-394 389 188 0
394 -389 188 0
-394 -389 -188 0
389 -395 0
394 -395 0
-389 -394 395 0
282 -396 0
8 -396 0
-282 -8 396 0
-395 393 0
-396 393 0
395 396 -393 0
9 283 -398 0
-9 283 398 0
9 -283 398 0
-9 -283 -398 0
398 393 -189 0
-398 393 189 0
398 -393 189 0
-398 -393 -189 0
393 -399 0
398 -399 0
-393 -398 399 0
283 -400 0
9 -400 0
-283 -9 400 0
-399 397 0
-400 397 0
399 400 -397 0
10 284 -402 0
-10 284 402 0
10 -284 402 0
-10 -284 -402 0
402 397 -190 0
-402 397 190 0
402 -397 190 0
-402 -397 -190 0
397 -403 0
402 -403 0
-397 -402 403 0
284 -404 0
10 -404 0
-284 -10 404 0
-403 401 0
-404 401 0
403 404 -401 0
11 285 -406 0
-11 285 406 0
11 -285 406 0
-11 -285 -406 0
406 401 -191 0
-406 401 191 0
406 -401 191 0
-406 -401 -191 0
401 -407 0
406 -407 0
-401 -406 407 0
285 -408 0
11 -408 0
-285 -11 408 0
-407 405 0
-408 405 0
407 408 -405 0
12 286 -410 0
-12 286 410 0
12 -286 410 0
-12 -286 -410 0
410 405 -192 0
-410 405 192 0
410 -405 192 0
-410 -405 -192 0
405 -411 0
410 -411 0
-405 -410 411 0
286 -412 0
12 -412 0
-286 -12 412 0
-411 409 0
-412 409 0
411 412 -409 0
13 287 -414 0
-13 287 414 0
13 -287 414 0
-13 -287 -414 0
414 409 -193 0
-414 409 193 0
414 -409 193 0
-414 -409 -193 0
409 -415 0
414 -415 0
-409 -414 415 0
287 -416 0
13 -416 0
-287 -13 416 0
-415 413 0
-416 413 0
415 416 -413 0
14 288 -418 0
-14 288 418 0
14 -288 418 0
-14 -288 -418 0
418 413 -194 0
-418 413 194 0
418 -413 194 0
-418 -413 -194 0
413 -419 0
418 -419 0
-413 -418 419 0
288 -420 0
14 -420 0
-288 -14 420 0
-419 417 0
-420 417 0
419 420 -417 0
15 289 -422 0
-15 289 422 0
15 -289 422 0
-15 -289 -422 0
422 417 -195 0
-422 417 195 0
422 -417 195 0
-422 -417 -195 0
417 -423 0
422 -423 0
-417 -422 423 0
289 -424 0
15 -424 0
-289 -15 424 0
-423 421 0
-424 421 0
423 424 -421 0
16 290 -426 0
-16 290 426 0
16 -290 426 0
-16 -290 -426 0
426 421 -196 0
-426 421 196 0
426 -421 196 0
-426 -421 -196 0
421 -427 0
426 -427 0
-421 -426 427 0
290 -428 0
16 -428 0
-290 -16 428 0
-427 425 0
-428 425 0
427 428 -425 0
17 291 -430 0
-17 291 430 0
17 -291 430 0
-17 -291 -430 0
430 425 -197 0
-430 425 197 0
430 -425 197 0
-430 -425 -197 0
425 -431 0
430 -431 0
-425 -430 431 0
291 -432 0
17 -432 0
-291 -17 432 0
-431 429 0
-432 429 0
431 432 -429 0
18 292 -434 0
-18 292 434 0
18 -292 434 0
-18 -292 -434 0
434 429 -198 0
-434 429 198 0
434 -429 198 0
-434 -429 -198 0
429 -435 0
434 -435 0
-429 -434 435 0
292 -436 0
18 -436 0
-292 -18 436 0
-435 433 0
-436 433 0
435 436 -433 0
19 293 -438 0
-19 293 438 0
19 -293 438 0
-19 -293 -438 0
438 433 -199 0
-438 433 199 0
438 -433 199 0
-438 -433 -199 0
433 -439 0
438 -439 0
-433 -438 439 0
293 -440 0
19 -440 0
-293 -19 440 0
-439 437 0
-440 437 0
439 440 -437 0
20 294 -442 0
-20 294 442 0
20 -294 442 0
-20 -294 -442 0
442 437 -200 0
-442 437 200 0
442 -437 200 0
-442 -437 -200 0
437 -443 0
442 -443 0
-437 -442 443 0
294 -444 0
20 -444 0
-294 -20 444 0
-443 441 0
-444 441 0
443 444 -441 0
21 295 -446 0
-21 295 446 0
21 -295 446 0
-21 -295 -446 0
446 441 -201 0
-446 441 201 0
446 -441 201 0
-446 -441 -201 0
441 -447 0
446 -447 0
-441 -446 447 0
295 -448 0
21 -448 0
-295 -21 448 0
-447 445 0
-448 445 0
447 448 -445 0
22 296 -450 0
-22 296 450 0
22 -296 450 0
-22 -296 -450 0
450 445 -202 0
-450 445 202 0
450 -445 202 0
-450 -445 -202 0
445 -451 0
450 -451 0
-445 -450 451 0
296 -452 0
22 -452 0
-296 -22 452 0
-451 449 0
-452 449 0
451 452 -449 0
23 297 -454 0
-23 297 454 0
23 -297 454 0
-23 -297 -454 0
454 449 -203 0
-454 449 203 0
454 -449 203 0
-454 -449 -203 0
449 -455 0
454 -455 0
-449 -454 455 0
297 -456 0
23 -456 0
-297 -23 456 0
-455 453 0
-456 453 0
455 456 -453 0
24 298 -458 0
-24 298 458 0
24 -298 458 0
-24 -298 -458 0
458 453 -204 0
-458 453 204 0
458 -453 204 0
-458 -453 -204 0
453 -459 0
458 -459 0
-453 -458 459 0
298 -460 0
24 -460 0
-298 -24 460 0
-459 457 0
-460 457 0
459 460 -457 0
25 299 -462 0
-25 299 462 0
25 -299 462 0
-25 -299 -462 0
462 457 -205 0
-462 457 205 0
462 -457 205 0
-462 -457 -205 0
457 -463 0
462 -463 0
-457 -462 463 0
299 -464 0
25 -464 0
-299 -25 464 0
-463 461 0
-464 461 0
463 464 -461 0
26 300 -466 0
-26 300 466 0
26 -300 466 0
-26 -300 -466 0
466 461 -206 0
-466 461 206 0
466 -461 206 0
-466 -461 -206 0
461 -467 0
466 -467 0
-461 -466 467 0
300 -468 0
26 -468 0
-300 -26 468 0
-467 465 0
-468 465 0
467 468 -465 0
27 301 -470 0
-27 301 470 0
27 -301 470 0
-27 -301 -470 0
470 465 -207 0
-470 465 207 0
470 -465 207 0
-470 -465 -207 0
465 -471 0
470 -471 0
-465 -470 471 0
301 -472 0
27 -472 0
-301 -27 472 0
-471 469 0
-472 469 0
471 472 -469 0
28 302 -474 0
-28 302 474 0
28 -302 474 0
-28 -302 -474 0
474 469 -208 0
-474 469 208 0
474 -469 208 0
-474 -469 -208 0
469 -475 0
474 -475 0
-469 -474 475 0
302 -476 0
28 -476 0
-302 -28 476 0
-475 473 0
-476 473 0
475 476 -473 0
29 303 -478 0
-29 303 478 0
29 -303 478 0
-29 -303 -478 0
478 473 -209 0
-478 473 209 0
478 -473 209 0
-478 -473 -209 0
473 -479 0
478 -479 0
-473 -478 479 0
303 -480 0
29 -480 0
-303 -29 480 0
-479 477 0
-480 477 0
479 480 -477 0
30 304 -482 0
-30 304 482 0
30 -304 482 0
-30 -304 -482 0
482 477 -210 0
-482 477 210 0
482 -477 210 0
-482 -477 -210 0
477 -483 0
482 -483 0
-477 -482 483 0
304 -484 0
30 -484 0
-304 -30 484 0
-483 481 0
-484 481 0
483 484 -481 0
31 305 -486 0
-31 305 486 0
31 -305 486 0
-31 -305 -486 0
486 481 -211 0
-486 481 211 0
486 -481 211 0
-486 -481 -211 0
481 -487 0
486 -487 0
-481 -486 487 0
305 -488 0
31 -488 0
-305 -31 488 0
-487 485 0
-488 485 0
487 488 -485 0
32 306 -490 0
-32 306 490 0
32 -306 490 0
-32 -306 -490 0
490 485 -212 0
-490 485 212 0
490 -485 212 0
-490 -485 -212 0
485 -491 0
490 -491 0
-485 -490 491 0
306 -492 0
32 -492 0
-306 -32 492 0
-491 489 0
-492 489 0
491 492 -489 0
33 307 -494 0
-33 307 494 0
33 -307 494 0
-33 -307 -494 0
494 489 -213 0
-494 489 213 0
494 -489 213 0
-494 -489 -213 0
489 -495 0
494 -495 0
-489 -494 495 0
307 -496 0
33 -496 0
-307 -33 496 0
-495 493 0
-496 493 0
495 496 -493 0
34 308 -498 0
-34 308 498 0
34 -308 498 0
-34 -308 -498 0
498 493 -214 0
-498 493 214 0
498 -493 214 0
-498 -493 -214 0
493 -499 0
498 -499 0
-493 -498 499 0
308 -500 0
34 -500 0
-308 -34 500 0
-499 497 0
-500 497 0
499 500 -497 0
35 309 -502 0
-35 309 502 0
35 -309 502 0
-35 -309 -502 0
502 497 -215 0
-502 497 215 0
502 -497 215 0
-502 -497 -215 0
497 -503 0
502 -503 0
-497 -502 503 0
309 -504 0
35 -504 0
-309 -35 504 0
-503 501 0
-504 501 0
503 504 -501 0
36 310 -506 0
-36 310 506 0
36 -310 506 0
-36 -310 -506 0
506 501 -216 0
-506 501 216 0
506 -501 216 0
-506 -501 -216 0
501 -507 0
506 -507 0
-501 -506 507 0
310 -508 0
36 -508 0
-310 -36 508 0
-507 505 0
-508 505 0
507 508 -505 0
37 311 -510 0
-37 311 510 0
37 -311 510 0
-37 -311 -510 0
510 505 -217 0
-510 505 217 0
510 -505 217 0
-510 -505 -217 0
505 -511 0
510 -511 0
-505 -510 511 0
311 -512 0
37 -512 0
-311 -37 512 0
-511 509 0
-512 509 0
511 512 -509 0
38 312 -514 0
-38 312 514 0
38 -312 514 0
-38 -312 -514 0
514 509 -218 0
-514 509 218 0
514 -509 218 0
-514 -509 -218 0
509 -515 0
514 -515 0
-509 -514 515 0
312 -516 0
38 -516 0
-312 -38 516 0
-515 513 0
-516 513 0
515 516 -513 0
39 313 -518 0
-39 313 518 0
39 -313 518 0
-39 -313 -518 0
518 513 -219 0
-518 513 219 0
518 -513 219 0
-518 -513 -219 0
513 -519 0
518 -519 0
-513 -518 519 0
313 -520 0
39 -520 0
-313 -39 520 0
-519 517 0
-520 517 0
519 520 -517 0
40 314 -522 0
-40 314 522 0
40 -314 522 0
-40 -314 -522 0
522 517 -220 0
-522 517 220 0
522 -517 220 0
-522 -517 -220 0
517 -523 0
522 -523 0
-517 -522 523 0
314 -524 0
40 -524 0
-314 -40 524 0
-523 521 0
-524 521 0
523 524 -521 0
41 315 -526 0
-41 315 526 0
41 -315 526 0
-41 -315 -526 0
526 521 -221 0
-526 521 221 0
526 -521 221 0
-526 -521 -221 0
521 -527 0
526 -527 0
-521 -526 527 0
315 -528 0
41 -528 0
-315 -41 528 0
-527 525 0
-528 525 0
527 528 -525 0
42 316 -530 0
-42 316 530 0
42 -316 530 0
-42 -316 -530 0
530 525 -222 0
-530 525 222 0
530 -525 222 0
-530 -525 -222 0
525 -531 0
530 -531 0
-525 -530 531 0
316 -532 0
42 -532 0
-316 -42 532 0
-531 529 0
-532 529 0
531 532 -529 0
43 317 -534 0
-43 317 534 0
43 -317 534 0
-43 -317 -534 0
534 529 -223 0
-534 529 223 0
534 -529 223 0
-534 -529 -223 0
529 -535 0
534 -535 0
-529 -534 535 0
317 -536 0
43 -536 0
-317 -43 536 0
-535 533 0
-536 533 0
535 536 -533 0
44 318 -538 0
-44 318 538 0
44 -318 538 0
-44 -318 -538 0
538 533 -224 0
-538 533 224 0
538 -533 224 0
-538 -533 -224 0
533 -539 0
538 -539 0
-533 -538 539 0
318 -540 0
44 -540 0
-318 -44 540 0
-539 537 0
-540 537 0
539 540 -537 0
45 319 -542 0
-45 319 542 0
45 -319 542 0
-45 -319 -542 0
542 537 -225 0
-542 537 225 0
542 -537 225 0
-542 -537 -225 0
537 -543 0
542 -543 0
-537 -542 543 0
319 -544 0
45 -544 0
-319 -45 544 0
-543 541 0
-544 541 0
543 544 -541 0
46 320 -546 0
-46 320 546 0
46 -320 546 0
-46 -320 -546 0
546 541 -226 0
-546 541 226 0
546 -541 226 0
-546 -541 -226 0
541 -547 0
546 -547 0
-541 -546 547 0
320 -548 0
46 -548 0
-320 -46 548 0
-547 545 0
-548 545 0
547 548 -545 0
47 321 -550 0
-47 321 550 0
47 -321 550 0
-47 -321 -550 0
550 545 -227 0
-550 545 227 0
550 -545 227 0
-550 -545 -227 0
545 -551 0
550 -551 0
-545 -550 551 0
321 -552 0
47 -552 0
-321 -47 552 0
-551 549 0
-552 549 0
551 552 -549 0
48 322 -554 0
-48 322 554 0
48 -322 554 0
-48 -322 -554 0
554 549 -228 0
-554 549 228 0
554 -549 228 0
-554 -549 -228 0
549 -555 0
554 -555 0
-549 -554 555 0
322 -556 0
48 -556 0
-322 -48 556 0
-555 553 0
-556 553 0
555 556 -553 0
49 323 -558 0
-49 323 558 0
49 -323 558 0
-49 -323 -558 0
558 553 -229 0
-558 553 229 0
558 -553 229 0
-558 -553 -229 0
553 -559 0
558 -559 0
-553 -558 559 0
323 -560 0
49 -560 0
-323 -49 560 0
-559 557 0
-560 557 0
559 560 -557 0
50 324 -562 0
-50 324 562 0
50 -324 562 0
-50 -324 -562 0
562 557 -230 0
-562 557 230 0
562 -557 230 0
-562 -557 -230 0
557 -563 0
562 -563 0
-557 -562 563 0
324 -564 0
50 -564 0
-324 -50 564 0
-563 561 0
-564 561 0
563 564 -561 0
51 325 -566 0
-51 325 566 0
51 -325 566 0
-51 -325 -566 0
566 561 -231 0
-566 561 231 0
566 -561 231 0
-566 -561 -231 0
561 -567 0
566 -567 0
-561 -566 567 0
325 -568 0
51 -568 0
-325 -51 568 0
-567 565 0
-568 565 0
567 568 -565 0
52 326 -570 0
-52 326 570 0
52 -326 570 0
-52 -326 -570 0
570 565 -232 0
-570 565 232 0
570 -565 232 0
-570 -565 -232 0
565 -571 0
570 -571 0
-565 -570 571 0
326 -572 0
52 -572 0
-326 -52 572 0
-571 569 0
-572 569 0
571 572 -569 0
53 327 -574 0
-53 327 574 0
53 -327 574 0
-53 -327 -574 0
574 569 -233 0
-574 569 233 0
574 -569 233 0
-574 -569 -233 0
569 -575 0
574 -575 0
-569 -574 575 0
327 -576 0
53 -576 0
-327 -53 576 0
-575 573 0
-576 573 0
575 576 -573 0
54 328 -578 0
-54 328 578 0
54 -328 578 0
-54 -328 -578 0
578 573 -234 0
-578 573 234 0
578 -573 234 0
-578 -573 -234 0
573 -579 0
578 -579 0
-573 -578 579 0
328 -580 0
54 -580 0
-328 -54 580 0
-579 577 0
-580 577 0
579 580 -577 0
55 329 -582 0
-55 329 582 0
55 -329 582 0
-55 -329 -582 0
582 577 -235 0
-582 577 235 0
582 -577 235 0
-582 -577 -235 0
577 -583 0
582 -583 0
-577 -582 583 0
329 -584 0
55 -584 0
-329 -55 584 0
-583 581 0
-584 581 0
583 584 -581 0
56 330 -586 0
-56 330 586 0
56 -330 586 0
-56 -330 -586 0
586 581 -236 0
-586 581 236 0
586 -581 236 0
-586 -581 -236 0
581 -587 0
586 -587 0
-581 -586 587 0
330 -588 0
56 -588 0
-330 -56 588 0
-587 585 0
-588 585 0
587 588 -585 0
57 331 -590 0
-57 331 590 0
57 -331 590 0
-57 -331 -590 0
590 585 -237 0
-590 585 237 0
590 -585 237 0
-590 -585 -237 0
585 -591 0
590 -591 0
-585 -590 591 0
331 -592 0
57 -592 0
-331 -57 592 0
-591 589 0
-592 589 0
591 592 -589 0
58 332 -594 0
-58 332 594 0
58 -332 594 0
-58 -332 -594 0
594 589 -238 0
-594 589 238 0
594 -589 238 0
-594 -589 -238 0
589 -595 0
594 -595 0
-589 -594 595 0
332 -596 0
58 -596 0
-332 -58 596 0
-595 593 0
-596 593 0
595 596 -593 0
59 333 -598 0
-59 333 598 0
59 -333 598 0
-59 -333 -598 0
598 593 -239 0
-598 593 239 0
598 -593 239 0
-598 -593 -239 0
593 -599 0
598 -599 0
-593 -598 599 0
333 -600 0
59 -600 0
-333 -59 600 0
-599 597 0
-600 597 0
599 600 -597 0
60 334 -602 0
-60 334 602 0
60 -334 602 0
-60 -334 -602 0
602 597 -240 0
-602 597 240 0
602 -597 240 0
-602 -597 -240 0
597 -603 0
602 -603 0
-597 -602 603 0
334 -604 0
60 -604 0
-334 -60 604 0
-603 601 0
-604 601 0
603 604 -601 0
61 335 -606 0
-61 335 606 0
61 -335 606 0
-61 -335 -606 0
606 601 -241 0
-606 601 241 0
606 -601 241 0
-606 -601 -241 0
601 -607 0
606 -607 0
-601 -606 607 0
335 -608 0
61 -608 0
-335 -61 608 0
-607 605 0
-608 605 0
607 608 -605 0
62 336 -610 0
-62 336 610 0
62 -336 610 0
-62 -336 -610 0
610 605 -242 0
-610 605 242 0
610 -605 242 0
-610 -605 -242 0
605 -611 0
610 -611 0
-605 -610 611 0
336 -612 0
62 -612 0
-336 -62 612 0
-611 609 0
-612 609 0
611 612 -609 0
63 337 -614 0
-63 337 614 0
63 -337 614 0
-63 -337 -614 0
614 609 -243 0
-614 609 243 0
614 -609 243 0
-614 -609 -243 0
609 -615 0
614 -615 0
-609 -614 615 0
337 -616 0
63 -616 0
-337 -63 616 0
-615 613 0
-616 613 0
615 616 -613 0
64 338 -618 0
-64 338 618 0
64 -338 618 0
-64 -338 -618 0
618 613 -244 0
-618 613 244 0
618 -613 244 0
-618 -613 -244 0
613 -619 0
618 -619 0
-613 -618 619 0
338 -620 0
64 -620 0
-338 -64 620 0
-619 617 0
-620 617 0
619 620 -617 0
65 339 -622 0
-65 339 622 0
65 -339 622 0
-65 -339 -622 0
622 617 -245 0
-622 617 245 0
622 -617 245 0
-622 -617 -245 0
617 -623 0
622 -623 0
-617 -622 623 0
339 -624 0
65 -624 0
-339 -65 624 0
-623 621 0
-624 621 0
623 624 -621 0
66 340 -626 0
-66 340 626 0
66 -340 626 0
-66 -340 -626 0
626 621 -246 0
-626 621 246 0
626 -621 246 0
-626 -621 -246 0
621 -627 0
626 -627 0
-621 -626 627 0
340 -628 0
66 -628 0
-340 -66 628 0
-627 625 0
-628 625 0
627 628 -625 0
67 341 -630 0
-67 341 630 0
67 -341 630 0
-67 -341 -630 0
630 625 -247 0
-630 625 247 0
630 -625 247 0
-630 -625 -247 0
625 -631 0
630 -631 0
-625 -630 631 0
341 -632 0
67 -632 0
-341 -67 632 0
-631 629 0
-632 629 0
631 632 -629 0
68 342 -634 0
-68 342 634 0
68 -342 634 0
-68 -342 -634 0
634 629 -248 0
-634 629 248 0
634 -629 248 0
-634 -629 -248 0
629 -635 0
634 -635 0
-629 -634 635 0
342 -636 0
68 -636 0
-342 -68 636 0
-635 633 0
-636 633 0
635 636 -633 0
69 343 -638 0
-69 343 638 0
69 -343 638 0
-69 -343 -638 0
638 633 -249 0
-638 633 249 0
638 -633 249 0
-638 -633 -249 0
633 -639 0
638 -639 0
-633 -638 639 0
343 -640 0
69 -640 0
-343 -69 640 0
-639 637 0
-640 637 0
639 640 -637 0
70 344 -642 0
-70 344 642 0
70 -344 642 0
-70 -344 -642 0
642 637 -250 0
-642 637 250 0
642 -637 250 0
-642 -637 -250 0
637 -643 0
642 -643 0
-637 -642 643 0
344 -644 0
70 -644 0
-344 -70 644 0
-643 641 0
-644 641 0
643 644 -641 0
71 345 -646 0
-71 345 646 0
71 -345 646 0
-71 -345 -646 0
646 641 -251 0
-646 641 251 0
646 -641 251 0
-646 -641 -251 0
641 -647 0
646 -647 0
-641 -646 647 0
345 -648 0
71 -648 0
-345 -71 648 0
-647 645 0
-648 645 0
647 648 -645 0
72 346 -650 0
-72 346 650 0
72 -346 650 0
-72 -346 -650 0
650 645 -252 0
-650 645 252 0
650 -645 252 0
-650 -645 -252 0
645 -651 0
650 -651 0
-645 -650 651 0
346 -652 0
72 -652 0
-346 -72 652 0
-651 649 0
-652 649 0
651 652 -649 0
73 347 -654 0
-73 347 654 0
73 -347 654 0
-73 -347 -654 0
654 649 -253 0
-654 649 253 0
654 -649 253 0
-654 -649 -253 0
649 -655 0
654 -655 0
-649 -654 655 0
347 -656 0
73 -656 0
-347 -73 656 0
-655 653 0
-656 653 0
655 656 -653 0
74 348 -658 0
-74 348 658 0
74 -348 658 0
-74 -348 -658 0
658 653 -254 0
-658 653 254 0
658 -653 254 0
-658 -653 -254 0
653 -659 0
658 -659 0
-653 -658 659 0
348 -660 0
74 -660 0
-348 -74 660 0
-659 657 0
-660 657 0
659 660 -657 0
75 349 -662 0
-75 349 662 0
75 -349 662 0
-75 -349 -662 0
662 657 -255 0
-662 657 255 0
662 -657 255 0
-662 -657 -255 0
657 -663 0
662 -663 0
-657 -662 663 0
349 -664 0
75 -664 0
-349 -75 664 0
-663 661 0
-664 661 0
663 664 -661 0
76 350 -666 0
-76 350 666 0
76 -350 666 0
-76 -350 -666 0
666 661 -256 0
-666 661 256 0
666 -661 256 0
-666 -661 -256 0
661 -667 0
666 -667 0
-661 -666 667 0
350 -668 0
76 -668 0
-350 -76 668 0
-667 665 0
-668 665 0
667 668 -665 0
77 351 -670 0
-77 351 670 0
77 -351 670 0
-77 -351 -670 0
670 665 -257 0
-670 665 257 0
670 -665 257 0
-670 -665 -257 0
665 -671 0
670 -671 0
-665 -670 671 0
351 -672 0
77 -672 0
-351 -77 672 0
-671 669 0
-672 669 0
671 672 -669 0
78 352 -674 0
-78 352 674 0
78 -352 674 0
-78 -352 -674 0
674 669 -258 0
-674 669 258 0
674 -669 258 0
-674 -669 -258 0
669 -675 0
674 -675 0
-669 -674 675 0
352 -676 0
78 -676 0
-352 -78 676 0
-675 673 0
-676 673 0
675 676 -673 0
79 353 -678 0
-79 353 678 0
79 -353 678 0
-79 -353 -678 0
678 673 -259 0
-678 673 259 0
678 -673 259 0
-678 -673 -259 0
673 -679 0
678 -679 0
-673 -678 679 0
353 -680 0
79 -680 0
-353 -79 680 0
-679 677 0
-680 677 0
679 680 -677 0
80 354 -682 0
-80 354 682 0
80 -354 682 0
-80 -354 -682 0
682 677 -260 0
-682 677 260 0
682 -677 260 0
-682 -677 -260 0
677 -683 0
682 -683 0
-677 -682 683 0
354 -684 0
80 -684 0
-354 -80 684 0
-683 681 0
-684 681 0
683 684 -681 0
81 355 -686 0
-81 355 686 0
81 -355 686 0
-81 -355 -686 0
686 681 -261 0
-686 681 261 0
686 -681 261 0
-686 -681 -261 0
681 -687 0
686 -687 0
-681 -686 687 0
355 -688 0
81 -688 0
-355 -81 688 0
-687 685 0
-688 685 0
687 688 -685 0
82 356 -690 0
-82 356 690 0
82 -356 690 0
-82 -356 -690 0
690 685 -262 0
-690 685 262 0
690 -685 262 0
-690 -685 -262 0
685 -691 0
690 -691 0
-685 -690 691 0
356 -692 0
82 -692 0
-356 -82 692 0
-691 689 0
-692 689 0
691 692 -689 0
83 357 -694 0
-83 357 694 0
83 -357 694 0
-83 -357 -694 0
694 689 -263 0
-694 689 263 0
694 -689 263 0
-694 -689 -263 0
689 -695 0
694 -695 0
-689 -694 695 0
357 -696 0
83 -696 0
-357 -83 696 0
-695 693 0
-696 693 0
695 696 -693 0
84 358 -698 0
-84 358 698 0
84 -358 698 0
-84 -358 -698 0
698 693 -264 0
-698 693 264 0
698 -693 264 0
-698 -693 -264 0
693 -699 0
698 -699 0
-693 -698 699 0
358 -700 0
84 -700 0
-358 -84 700 0
-699 697 0
-700 697 0
699 700 -697 0
85 359 -702 0
-85 359 702 0
85 -359 702 0
-85 -359 -702 0
702 697 -265 0
-702 697 265 0
702 -697 265 0
-702 -697 -265 0
697 -703 0
702 -703 0
-697 -702 703 0
359 -704 0
85 -704 0
-359 -85 704 0
-703 701 0
-704 701 0
703 704 -701 0
86 360 -706 0
-86 360 706 0
86 -360 706 0
-86 -360 -706 0
706 701 -266 0
-706 701 266 0
706 -701 266 0
-706 -701 -266 0
701 -707 0
706 -707 0
-701 -706 707 0
360 -708 0
86 -708 0
-360 -86 708 0
-707 705 0
-708 705 0
707 708 -705 0
87 361 -710 0
-87 361 710 0
87 -361 710 0
-87 -361 -710 0
710 705 -267 0
-710 705 267 0
710 -705 267 0
-710 -705 -267 0
705 -711 0
710 -711 0
-705 -710 711 0
361 -712 0
87 -712 0
-361 -87 712 0
-711 709 0
-712 709 0
711 712 -709 0
88 362 -714 0
-88 362 714 0
88 -362 714 0
-88 -362 -714 0
714 709 -268 0
-714 709 268 0
714 -709 268 0
-714 -709 -268 0
709 -715 0
714 -715 0
-709 -714 715 0
362 -716 0
88 -716 0
-362 -88 716 0
-715 713 0
-716 713 0
715 716 -713 0
89 363 -718 0
-89 363 718 0
89 -363 718 0
-89 -363 -718 0
718 713 -269 0
-718 713 269 0
718 -713 269 0
-718 -713 -269 0
713 -719 0
718 -719 0
-713 -718 719 0
363 -720 0
89 -720 0
-363 -89 720 0
-719 717 0
-720 717 0
719 720 -717 0
90 364 -722 0
-90 364 722 0
90 -364 722 0
-90 -364 -722 0
722 717 -270 0
-722 717 270 0
722 -717 270 0
-722 -717 -270 0
717 -723 0
722 -723 0
-717 -722 723 0
364 -724 0
90 -724 0
-364 -90 724 0
-723 721 0
-724 721 0
723 724 -721 0
721 272 -271 0
-721 272 271 0
721 -272 271 0
-721 -272 -271 0
